data/processed_heuristic-threshold/instances/1/9/ds_531_courier_2925/pairwise.tsp
NAME: ds_531_courier_2925
TYPE: TSP
COMMENT: nil
DIMENSION: 10
EDGE_WEIGHT_TYPE: EXPLICIT
EDGE_WEIGHT_FORMAT: FULL_MATRIX
EDGE_WEIGHT_SECTION
9999 3221 2884 3502 3658 3164 4333 4241 2164 2811 
3221 9999 506 771 1187 87 1729 1680 1059 519 
2884 506 9999 682 1008 519 1665 1593 759 89 
3502 771 682 9999 418 850 998 935 1434 770 
3658 1187 1008 418 9999 1263 688 604 1709 1095 
3164 87 519 850 1263 9999 1814 1764 1008 516 
4333 1729 1665 998 688 1814 9999 96 2390 1754 
4241 1680 1593 935 604 1764 96 9999 2311 1682 
2164 1059 759 1434 1709 1008 2390 2311 9999 676 
2811 519 89 770 1095 516 1754 1682 676 9999 
