data/processed_heuristic-threshold/instances/1/9/ds_531_courier_2925/pairwise.sol
10
0 8 5 1 3 6 7 4 2 9 
